\ENCODING=ISO-8859-1
\Problem name: LP/crossvalidation_paper/er_n=109_m=558_p=0.10_SET2_setparam=100.00_alpha=0.75_5

Maximize
 obj1: 100 x0 + 100 x1 + 100 x2 + 100 x3 + 100 x4 + 100 x5 + 100 x6 + 100 x7
       + 100 x8 + 100 x9 + 100 x10 + 100 x11 + 100 x12 + 100 x13 + 100 x14
       + 100 x15 + 100 x16 + 100 x17 + 100 x18 + 100 x19 + 100 x20 + 100 x21
       + 100 x22 + 100 x23 + 100 x24 + 100 x25 + 100 x26 + 100 x27 + 100 x28
       + 100 x29 + 100 x30 + 100 x31 + 100 x32 + 100 x33 + 100 x34 + 100 x35
       + 100 x36 + 100 x37 + 100 x38 + 100 x39 + 100 x40 + 100 x41 + 100 x42
       + 100 x43 + 100 x44 + 100 x45 + 100 x46 + 100 x47 + 100 x48 + 100 x49
       + 100 x50 + 100 x51 + 100 x52 + 100 x53 + 100 x54 + 100 x55 + 100 x56
       + 100 x57 + 100 x58 + 100 x59 + 100 x60 + 100 x61 + 100 x62 + 100 x63
       + 100 x64 + 100 x65 + 100 x66 + 100 x67 + 100 x68 + 100 x69 + 100 x70
       + 100 x71 + 100 x72 + 100 x73 + 100 x74 + 100 x75 + 100 x76 + 100 x77
       + 100 x78 + 100 x79 + 100 x80 + 100 x81 + 100 x82 + 100 x83 + 100 x84
       + 100 x85 + 100 x86 + 100 x87 + 100 x88 + 100 x89 + 100 x90 + 100 x91
       + 100 x92 + 100 x93 + 100 x94 + 100 x95 + 100 x96 + 100 x97 + 100 x98
       + 100 x99 + 100 x100 + 100 x101 + 100 x102 + 100 x103 + 100 x104
       + 100 x105 + 100 x106 + 100 x107 + 100 x108 - y14_74 - y95_101 - y28_41
       - y30_51 - y42_62 - y52_98 - y56_101 - y26_98 - y0_17 - y44_56 - y88_98
       - y30_100 - y62_97 - y59_97 - y1_54 - y70_94 - y10_85 - y60_79 - y75_97
       - y0_67 - y35_46 - y30_58 - y49_71 - y28_77 - y45_54 - y67_89 - y44_77
       - y91_101 - y70_81 - y39_82 - y12_41 - y36_62 - y64_86 - y13_44 - y76_78
       - y49_52 - y58_105 - y7_80 - y47_73 - y37_99 - y27_53 - y47_62 - y37_77
       - y34_65 - y19_27 - y2_33 - y63_65 - y6_87 - y33_98 - y21_86 - y7_103
       - y5_29 - y74_104 - y15_84 - y63_78 - y5_39 - y11_92 - y29_42 - y30_49
       - y10_59 - y49_76 - y0_100 - y28_90 - y55_82 - y44_58 - y53_104 - y13_18
       - y44_80 - y68_94 - y8_89 - y39_99 - y9_67 - y34_77 - y8_40 - y3_48
       - y16_24 - y4_75 - y8_14 - y17_37 - y50_77 - y28_81 - y18_34 - y22_100
       - y19_98 - y26_107 - y24_61 - y46_80 - y12_96 - y47_51 - y72_102
       - y48_70 - y11_74 - y12_84 - y72_76 - y4_88 - y8_27 - y42_72 - y26_28
       - y0_7 - y46_91 - y90_104 - y12_31 - y67_102 - y5_8 - y0_83 - y62_93
       - y9_87 - y32_41 - y48_83 - y72_89 - y5_77 - y40_95 - y15_29 - y22_104
       - y20_72 - y12_22 - y57_106 - y8_78 - y56_72 - y44_91 - y73_106 - y80_91
       - y84_92 - y63_98 - y5_27 - y23_56 - y73_76 - y34_48 - y13_66 - y48_74
       - y4_78 - y49_66 - y63_86 - y4_84 - y42_68 - y46_101 - y40_108 - y49_62
       - y30_104 - y36_97 - y45_74 - y34_81 - y3_44 - y72_97 - y93_106 - y48_65
       - y38_77 - y51_87 - y6_71 - y38_39 - y4_83 - y8_22 - y17_61 - y30_73
       - y28_73 - y49_93 - y65_91 - y18_58 - y20_68 - y33_84 - y25_62 - y92_105
       - y14_88 - y4_22 - y3_59 - y17_28 - y7_33 - y79_94 - y25_108 - y6_62
       - y40_52 - y4_90 - y7_63 - y41_49 - y65_92 - y38_48 - y4_96 - y1_4
       - y59_105 - y0_85 - y63_103 - y25_83 - y5_58 - y51_75 - y13_33 - y40_65
       - y7_69 - y7_99 - y46_74 - y20_57 - y43_99 - y32_76 - y54_60 - y15_80
       - y7_23 - y1_90 - y101_102 - y74_88 - y8_17 - y13_52 - y28_76 - y48_49
       - y24_58 - y46_77 - y25_59 - y36_99 - y2_15 - y9_71 - y1_34 - y70_106
       - y51_89 - y65_89 - y37_48 - y55_93 - y51_101 - y64_75 - y22_82 - y11_27
       - y32_100 - y2_6 - y26_59 - y0_58 - y20_53 - y4_16 - y100_108 - y6_26
       - y39_72 - y2_90 - y5_63 - y12_39 - y43_57 - y19_85 - y0_27 - y53_96
       - y10_103 - y0_49 - y32_81 - y71_80 - y25_47 - y80_88 - y20_26 - y33_54
       - y74_107 - y8_32 - y49_107 - y10_58 - y13_95 - y17_71 - y39_44 - y41_73
       - y43_79 - y42_99 - y71_73 - y60_82 - y13_100 - y9_92 - y0_68 - y22_43
       - y5_33 - y61_68 - y16_39 - y4_74 - y79_84 - y52_106 - y30_108 - y5_102
       - y9_99 - y2_13 - y44_100 - y85_95 - y71_92 - y60_71 - y95_106 - y9_47
       - y16_52 - y40_49 - y75_85 - y27_97 - y40_87 - y56_90 - y35_104 - y14_58
       - y69_91 - y8_70 - y15_51 - y58_80 - y65_107 - y7_105 - y32_92 - y3_25
       - y38_102 - y59_74 - y33_51 - y81_89 - y4_56 - y48_82 - y27_102 - y17_76
       - y31_84 - y5_104 - y21_85 - y41_104 - y3_30 - y76_103 - y39_89 - y7_48
       - y78_85 - y24_107 - y12_54 - y3_91 - y43_48 - y39_46 - y13_55 - y65_67
       - y67_85 - y94_95 - y18_85 - y69_87 - y15_47 - y70_93 - y8_41 - y12_94
       - y30_57 - y50_74 - y9_14 - y25_100 - y103_108 - y10_13 - y49_94
       - y64_82 - y27_106 - y55_64 - y17_80 - y39_61 - y50_55 - y12_97 - y69_80
       - y25_63 - y4_15 - y9_75 - y68_108 - y28_58 - y34_69 - y34_63 - y14_103
       - y49_87 - y5_67 - y40_89 - y16_69 - y41_67 - y32_94 - y24_43 - y27_54
       - y4_28 - y14_68 - y61_84 - y9_86 - y82_103 - y4_58 - y15_72 - y18_21
       - y33_43 - y12_35 - y10_63 - y1_100 - y8_105 - y30_92 - y31_86 - y29_98
       - y19_63 - y24_50 - y43_96 - y59_69 - y95_96 - y6_43 - y73_85 - y41_60
       - y75_91 - y53_75 - y47_88 - y16_73 - y31_101 - y44_83 - y14_44 - y46_76
       - y90_101 - y36_98 - y13_96 - y70_83 - y25_94 - y28_61 - y80_105
       - y61_64 - y12_88 - y30_63 - y9_12 - y4_92 - y10_11 - y66_86 - y17_86
       - y58_107 - y56_87 - y79_100 - y1_2 - y67_98 - y44_96 - y11_105 - y3_20
       - y20_52 - y5_22 - y29_57 - y6_37 - y17_19 - y11_37 - y74_77 - y9_31
       - y3_81 - y14_62 - y33_70 - y58_70 - y39_104
Subject To
 c1:   x0 + x7 - y0_7 <= 1
 c2:   x0 + x17 - y0_17 <= 1
 c3:   x0 + x27 - y0_27 <= 1
 c4:   x0 + x46 <= 1
 c5:   x0 + x49 - y0_49 <= 1
 c6:   x0 + x58 - y0_58 <= 1
 c7:   x0 + x60 <= 1
 c8:   x0 + x63 <= 1
 c9:   x0 + x67 - y0_67 <= 1
 c10:  x0 + x68 - y0_68 <= 1
 c11:  x0 + x83 - y0_83 <= 1
 c12:  x0 + x85 - y0_85 <= 1
 c13:  x0 + x95 <= 1
 c14:  x0 + x100 - y0_100 <= 1
 c15:  x1 + x2 - y1_2 <= 1
 c16:  x1 + x4 - y1_4 <= 1
 c17:  x1 + x34 - y1_34 <= 1
 c18:  x1 + x54 - y1_54 <= 1
 c19:  x1 + x90 - y1_90 <= 1
 c20:  x1 + x97 <= 1
 c21:  x1 + x100 - y1_100 <= 1
 c22:  x1 + x105 <= 1
 c23:  x2 + x6 - y2_6 <= 1
 c24:  x2 + x13 - y2_13 <= 1
 c25:  x2 + x15 - y2_15 <= 1
 c26:  x2 + x33 - y2_33 <= 1
 c27:  x2 + x64 <= 1
 c28:  x2 + x90 - y2_90 <= 1
 c29:  x2 + x96 <= 1
 c30:  x3 + x5 <= 1
 c31:  x3 + x20 - y3_20 <= 1
 c32:  x3 + x25 - y3_25 <= 1
 c33:  x3 + x30 - y3_30 <= 1
 c34:  x3 + x44 - y3_44 <= 1
 c35:  x3 + x47 <= 1
 c36:  x3 + x48 - y3_48 <= 1
 c37:  x3 + x59 - y3_59 <= 1
 c38:  x3 + x79 <= 1
 c39:  x3 + x81 - y3_81 <= 1
 c40:  x3 + x89 <= 1
 c41:  x3 + x91 - y3_91 <= 1
 c42:  x4 + x15 - y4_15 <= 1
 c43:  x4 + x16 - y4_16 <= 1
 c44:  x4 + x18 <= 1
 c45:  x4 + x22 - y4_22 <= 1
 c46:  x4 + x28 - y4_28 <= 1
 c47:  x4 + x41 <= 1
 c48:  x4 + x56 - y4_56 <= 1
 c49:  x4 + x58 - y4_58 <= 1
 c50:  x4 + x74 - y4_74 <= 1
 c51:  x4 + x75 - y4_75 <= 1
 c52:  x4 + x78 - y4_78 <= 1
 c53:  x4 + x83 - y4_83 <= 1
 c54:  x4 + x84 - y4_84 <= 1
 c55:  x4 + x88 - y4_88 <= 1
 c56:  x4 + x90 - y4_90 <= 1
 c57:  x4 + x92 - y4_92 <= 1
 c58:  x4 + x96 - y4_96 <= 1
 c59:  x4 + x97 <= 1
 c60:  x4 + x103 <= 1
 c61:  x5 + x8 - y5_8 <= 1
 c62:  x5 + x22 - y5_22 <= 1
 c63:  x5 + x27 - y5_27 <= 1
 c64:  x5 + x29 - y5_29 <= 1
 c65:  x5 + x33 - y5_33 <= 1
 c66:  x5 + x35 <= 1
 c67:  x5 + x39 - y5_39 <= 1
 c68:  x5 + x58 - y5_58 <= 1
 c69:  x5 + x63 - y5_63 <= 1
 c70:  x5 + x66 <= 1
 c71:  x5 + x67 - y5_67 <= 1
 c72:  x5 + x77 - y5_77 <= 1
 c73:  x5 + x81 <= 1
 c74:  x5 + x102 - y5_102 <= 1
 c75:  x5 + x104 - y5_104 <= 1
 c76:  x6 + x24 <= 1
 c77:  x6 + x26 - y6_26 <= 1
 c78:  x6 + x37 - y6_37 <= 1
 c79:  x6 + x43 - y6_43 <= 1
 c80:  x6 + x61 <= 1
 c81:  x6 + x62 - y6_62 <= 1
 c82:  x6 + x71 - y6_71 <= 1
 c83:  x6 + x87 - y6_87 <= 1
 c84:  x7 + x9 <= 1
 c85:  x7 + x23 - y7_23 <= 1
 c86:  x7 + x33 - y7_33 <= 1
 c87:  x7 + x48 - y7_48 <= 1
 c88:  x7 + x63 - y7_63 <= 1
 c89:  x7 + x69 - y7_69 <= 1
 c90:  x7 + x80 - y7_80 <= 1
 c91:  x7 + x99 - y7_99 <= 1
 c92:  x7 + x103 - y7_103 <= 1
 c93:  x7 + x105 - y7_105 <= 1
 c94:  x8 + x11 <= 1
 c95:  x8 + x14 - y8_14 <= 1
 c96:  x8 + x17 - y8_17 <= 1
 c97:  x8 + x22 - y8_22 <= 1
 c98:  x8 + x27 - y8_27 <= 1
 c99:  x8 + x32 - y8_32 <= 1
 c100: x8 + x40 - y8_40 <= 1
 c101: x8 + x41 - y8_41 <= 1
 c102: x8 + x65 <= 1
 c103: x8 + x70 - y8_70 <= 1
 c104: x8 + x78 - y8_78 <= 1
 c105: x8 + x89 - y8_89 <= 1
 c106: x8 + x105 - y8_105 <= 1
 c107: x9 + x12 - y9_12 <= 1
 c108: x9 + x14 - y9_14 <= 1
 c109: x9 + x17 <= 1
 c110: x9 + x31 - y9_31 <= 1
 c111: x9 + x46 <= 1
 c112: x9 + x47 - y9_47 <= 1
 c113: x9 + x67 - y9_67 <= 1
 c114: x9 + x70 <= 1
 c115: x9 + x71 - y9_71 <= 1
 c116: x9 + x75 - y9_75 <= 1
 c117: x9 + x84 <= 1
 c118: x9 + x86 - y9_86 <= 1
 c119: x9 + x87 - y9_87 <= 1
 c120: x9 + x92 - y9_92 <= 1
 c121: x9 + x99 - y9_99 <= 1
 c122: x10 + x11 - y10_11 <= 1
 c123: x10 + x13 - y10_13 <= 1
 c124: x10 + x50 <= 1
 c125: x10 + x58 - y10_58 <= 1
 c126: x10 + x59 - y10_59 <= 1
 c127: x10 + x63 - y10_63 <= 1
 c128: x10 + x73 <= 1
 c129: x10 + x85 - y10_85 <= 1
 c130: x10 + x103 - y10_103 <= 1
 c131: x11 + x27 - y11_27 <= 1
 c132: x11 + x37 - y11_37 <= 1
 c133: x11 + x58 <= 1
 c134: x11 + x74 - y11_74 <= 1
 c135: x11 + x78 <= 1
 c136: x11 + x92 - y11_92 <= 1
 c137: x11 + x105 - y11_105 <= 1
 c138: x12 + x13 <= 1
 c139: x12 + x14 <= 1
 c140: x12 + x22 - y12_22 <= 1
 c141: x12 + x31 - y12_31 <= 1
 c142: x12 + x35 - y12_35 <= 1
 c143: x12 + x39 - y12_39 <= 1
 c144: x12 + x41 - y12_41 <= 1
 c145: x12 + x54 - y12_54 <= 1
 c146: x12 + x79 <= 1
 c147: x12 + x84 - y12_84 <= 1
 c148: x12 + x88 - y12_88 <= 1
 c149: x12 + x94 - y12_94 <= 1
 c150: x12 + x96 - y12_96 <= 1
 c151: x12 + x97 - y12_97 <= 1
 c152: x13 + x18 - y13_18 <= 1
 c153: x13 + x23 <= 1
 c154: x13 + x33 - y13_33 <= 1
 c155: x13 + x37 <= 1
 c156: x13 + x44 - y13_44 <= 1
 c157: x13 + x48 <= 1
 c158: x13 + x52 - y13_52 <= 1
 c159: x13 + x55 - y13_55 <= 1
 c160: x13 + x60 <= 1
 c161: x13 + x66 - y13_66 <= 1
 c162: x13 + x91 <= 1
 c163: x13 + x95 - y13_95 <= 1
 c164: x13 + x96 - y13_96 <= 1
 c165: x13 + x100 - y13_100 <= 1
 c166: x14 + x44 - y14_44 <= 1
 c167: x14 + x58 - y14_58 <= 1
 c168: x14 + x62 - y14_62 <= 1
 c169: x14 + x68 - y14_68 <= 1
 c170: x14 + x74 - y14_74 <= 1
 c171: x14 + x84 <= 1
 c172: x14 + x88 - y14_88 <= 1
 c173: x14 + x99 <= 1
 c174: x14 + x103 - y14_103 <= 1
 c175: x15 + x26 <= 1
 c176: x15 + x29 - y15_29 <= 1
 c177: x15 + x47 - y15_47 <= 1
 c178: x15 + x51 - y15_51 <= 1
 c179: x15 + x72 - y15_72 <= 1
 c180: x15 + x75 <= 1
 c181: x15 + x80 - y15_80 <= 1
 c182: x15 + x84 - y15_84 <= 1
 c183: x15 + x100 <= 1
 c184: x16 + x24 - y16_24 <= 1
 c185: x16 + x39 - y16_39 <= 1
 c186: x16 + x52 - y16_52 <= 1
 c187: x16 + x69 - y16_69 <= 1
 c188: x16 + x73 - y16_73 <= 1
 c189: x16 + x87 <= 1
 c190: x17 + x19 - y17_19 <= 1
 c191: x17 + x22 <= 1
 c192: x17 + x28 - y17_28 <= 1
 c193: x17 + x37 - y17_37 <= 1
 c194: x17 + x58 <= 1
 c195: x17 + x61 - y17_61 <= 1
 c196: x17 + x70 <= 1
 c197: x17 + x71 - y17_71 <= 1
 c198: x17 + x76 - y17_76 <= 1
 c199: x17 + x80 - y17_80 <= 1
 c200: x17 + x86 - y17_86 <= 1
 c201: x17 + x106 <= 1
 c202: x18 + x21 - y18_21 <= 1
 c203: x18 + x34 - y18_34 <= 1
 c204: x18 + x36 <= 1
 c205: x18 + x47 <= 1
 c206: x18 + x58 - y18_58 <= 1
 c207: x18 + x81 <= 1
 c208: x18 + x85 - y18_85 <= 1
 c209: x18 + x86 <= 1
 c210: x19 + x27 - y19_27 <= 1
 c211: x19 + x63 - y19_63 <= 1
 c212: x19 + x85 - y19_85 <= 1
 c213: x19 + x98 - y19_98 <= 1
 c214: x20 + x26 - y20_26 <= 1
 c215: x20 + x52 - y20_52 <= 1
 c216: x20 + x53 - y20_53 <= 1
 c217: x20 + x57 - y20_57 <= 1
 c218: x20 + x68 - y20_68 <= 1
 c219: x20 + x72 - y20_72 <= 1
 c220: x21 + x39 <= 1
 c221: x21 + x59 <= 1
 c222: x21 + x64 <= 1
 c223: x21 + x85 - y21_85 <= 1
 c224: x21 + x86 - y21_86 <= 1
 c225: x22 + x27 <= 1
 c226: x22 + x43 - y22_43 <= 1
 c227: x22 + x82 - y22_82 <= 1
 c228: x22 + x100 - y22_100 <= 1
 c229: x22 + x104 - y22_104 <= 1
 c230: x23 + x28 <= 1
 c231: x23 + x56 - y23_56 <= 1
 c232: x24 + x43 - y24_43 <= 1
 c233: x24 + x50 - y24_50 <= 1
 c234: x24 + x58 - y24_58 <= 1
 c235: x24 + x61 - y24_61 <= 1
 c236: x24 + x107 - y24_107 <= 1
 c237: x25 + x47 - y25_47 <= 1
 c238: x25 + x59 - y25_59 <= 1
 c239: x25 + x62 - y25_62 <= 1
 c240: x25 + x63 - y25_63 <= 1
 c241: x25 + x83 - y25_83 <= 1
 c242: x25 + x94 - y25_94 <= 1
 c243: x25 + x100 - y25_100 <= 1
 c244: x25 + x102 <= 1
 c245: x25 + x108 - y25_108 <= 1
 c246: x26 + x28 - y26_28 <= 1
 c247: x26 + x59 - y26_59 <= 1
 c248: x26 + x78 <= 1
 c249: x26 + x98 - y26_98 <= 1
 c250: x26 + x107 - y26_107 <= 1
 c251: x27 + x28 <= 1
 c252: x27 + x53 - y27_53 <= 1
 c253: x27 + x54 - y27_54 <= 1
 c254: x27 + x56 <= 1
 c255: x27 + x97 - y27_97 <= 1
 c256: x27 + x102 - y27_102 <= 1
 c257: x27 + x106 - y27_106 <= 1
 c258: x28 + x41 - y28_41 <= 1
 c259: x28 + x47 <= 1
 c260: x28 + x58 - y28_58 <= 1
 c261: x28 + x61 - y28_61 <= 1
 c262: x28 + x73 - y28_73 <= 1
 c263: x28 + x76 - y28_76 <= 1
 c264: x28 + x77 - y28_77 <= 1
 c265: x28 + x81 - y28_81 <= 1
 c266: x28 + x87 <= 1
 c267: x28 + x90 - y28_90 <= 1
 c268: x28 + x99 <= 1
 c269: x29 + x42 - y29_42 <= 1
 c270: x29 + x57 - y29_57 <= 1
 c271: x29 + x98 - y29_98 <= 1
 c272: x29 + x104 <= 1
 c273: x30 + x49 - y30_49 <= 1
 c274: x30 + x51 - y30_51 <= 1
 c275: x30 + x57 - y30_57 <= 1
 c276: x30 + x58 - y30_58 <= 1
 c277: x30 + x63 - y30_63 <= 1
 c278: x30 + x73 - y30_73 <= 1
 c279: x30 + x92 - y30_92 <= 1
 c280: x30 + x100 - y30_100 <= 1
 c281: x30 + x104 - y30_104 <= 1
 c282: x30 + x108 - y30_108 <= 1
 c283: x31 + x72 <= 1
 c284: x31 + x84 - y31_84 <= 1
 c285: x31 + x86 - y31_86 <= 1
 c286: x31 + x101 - y31_101 <= 1
 c287: x31 + x103 <= 1
 c288: x32 + x41 - y32_41 <= 1
 c289: x32 + x44 <= 1
 c290: x32 + x59 <= 1
 c291: x32 + x67 <= 1
 c292: x32 + x76 - y32_76 <= 1
 c293: x32 + x81 - y32_81 <= 1
 c294: x32 + x92 - y32_92 <= 1
 c295: x32 + x94 - y32_94 <= 1
 c296: x32 + x100 - y32_100 <= 1
 c297: x33 + x43 - y33_43 <= 1
 c298: x33 + x51 - y33_51 <= 1
 c299: x33 + x54 - y33_54 <= 1
 c300: x33 + x70 - y33_70 <= 1
 c301: x33 + x74 <= 1
 c302: x33 + x84 - y33_84 <= 1
 c303: x33 + x98 - y33_98 <= 1
 c304: x34 + x48 - y34_48 <= 1
 c305: x34 + x63 - y34_63 <= 1
 c306: x34 + x65 - y34_65 <= 1
 c307: x34 + x69 - y34_69 <= 1
 c308: x34 + x77 - y34_77 <= 1
 c309: x34 + x81 - y34_81 <= 1
 c310: x34 + x93 <= 1
 c311: x35 + x46 - y35_46 <= 1
 c312: x35 + x104 - y35_104 <= 1
 c313: x35 + x105 <= 1
 c314: x36 + x62 - y36_62 <= 1
 c315: x36 + x68 <= 1
 c316: x36 + x83 <= 1
 c317: x36 + x97 - y36_97 <= 1
 c318: x36 + x98 - y36_98 <= 1
 c319: x36 + x99 - y36_99 <= 1
 c320: x36 + x101 <= 1
 c321: x37 + x48 - y37_48 <= 1
 c322: x37 + x66 <= 1
 c323: x37 + x77 - y37_77 <= 1
 c324: x37 + x99 - y37_99 <= 1
 c325: x37 + x102 <= 1
 c326: x38 + x39 - y38_39 <= 1
 c327: x38 + x48 - y38_48 <= 1
 c328: x38 + x77 - y38_77 <= 1
 c329: x38 + x102 - y38_102 <= 1
 c330: x39 + x44 - y39_44 <= 1
 c331: x39 + x46 - y39_46 <= 1
 c332: x39 + x56 <= 1
 c333: x39 + x60 <= 1
 c334: x39 + x61 - y39_61 <= 1
 c335: x39 + x72 - y39_72 <= 1
 c336: x39 + x82 - y39_82 <= 1
 c337: x39 + x89 - y39_89 <= 1
 c338: x39 + x99 - y39_99 <= 1
 c339: x39 + x104 - y39_104 <= 1
 c340: x40 + x49 - y40_49 <= 1
 c341: x40 + x52 - y40_52 <= 1
 c342: x40 + x62 <= 1
 c343: x40 + x65 - y40_65 <= 1
 c344: x40 + x87 - y40_87 <= 1
 c345: x40 + x89 - y40_89 <= 1
 c346: x40 + x95 - y40_95 <= 1
 c347: x40 + x108 - y40_108 <= 1
 c348: x41 + x49 - y41_49 <= 1
 c349: x41 + x60 - y41_60 <= 1
 c350: x41 + x67 - y41_67 <= 1
 c351: x41 + x68 <= 1
 c352: x41 + x73 - y41_73 <= 1
 c353: x41 + x76 <= 1
 c354: x41 + x98 <= 1
 c355: x41 + x104 - y41_104 <= 1
 c356: x42 + x62 - y42_62 <= 1
 c357: x42 + x68 - y42_68 <= 1
 c358: x42 + x72 - y42_72 <= 1
 c359: x42 + x89 <= 1
 c360: x42 + x99 - y42_99 <= 1
 c361: x43 + x48 - y43_48 <= 1
 c362: x43 + x57 - y43_57 <= 1
 c363: x43 + x79 - y43_79 <= 1
 c364: x43 + x96 - y43_96 <= 1
 c365: x43 + x99 - y43_99 <= 1
 c366: x44 + x56 - y44_56 <= 1
 c367: x44 + x58 - y44_58 <= 1
 c368: x44 + x77 - y44_77 <= 1
 c369: x44 + x80 - y44_80 <= 1
 c370: x44 + x83 - y44_83 <= 1
 c371: x44 + x91 - y44_91 <= 1
 c372: x44 + x96 - y44_96 <= 1
 c373: x44 + x100 - y44_100 <= 1
 c374: x45 + x54 - y45_54 <= 1
 c375: x45 + x74 - y45_74 <= 1
 c376: x45 + x101 <= 1
 c377: x46 + x74 - y46_74 <= 1
 c378: x46 + x76 - y46_76 <= 1
 c379: x46 + x77 - y46_77 <= 1
 c380: x46 + x80 - y46_80 <= 1
 c381: x46 + x91 - y46_91 <= 1
 c382: x46 + x92 <= 1
 c383: x46 + x101 - y46_101 <= 1
 c384: x47 + x51 - y47_51 <= 1
 c385: x47 + x62 - y47_62 <= 1
 c386: x47 + x73 - y47_73 <= 1
 c387: x47 + x78 <= 1
 c388: x47 + x88 - y47_88 <= 1
 c389: x47 + x90 <= 1
 c390: x47 + x102 <= 1
 c391: x47 + x104 <= 1
 c392: x48 + x49 - y48_49 <= 1
 c393: x48 + x65 - y48_65 <= 1
 c394: x48 + x70 - y48_70 <= 1
 c395: x48 + x74 - y48_74 <= 1
 c396: x48 + x82 - y48_82 <= 1
 c397: x48 + x83 - y48_83 <= 1
 c398: x49 + x52 - y49_52 <= 1
 c399: x49 + x58 <= 1
 c400: x49 + x62 - y49_62 <= 1
 c401: x49 + x66 - y49_66 <= 1
 c402: x49 + x71 - y49_71 <= 1
 c403: x49 + x76 - y49_76 <= 1
 c404: x49 + x79 <= 1
 c405: x49 + x87 - y49_87 <= 1
 c406: x49 + x93 - y49_93 <= 1
 c407: x49 + x94 - y49_94 <= 1
 c408: x49 + x107 - y49_107 <= 1
 c409: x50 + x53 <= 1
 c410: x50 + x54 <= 1
 c411: x50 + x55 - y50_55 <= 1
 c412: x50 + x67 <= 1
 c413: x50 + x74 - y50_74 <= 1
 c414: x50 + x77 - y50_77 <= 1
 c415: x50 + x104 <= 1
 c416: x51 + x75 - y51_75 <= 1
 c417: x51 + x87 - y51_87 <= 1
 c418: x51 + x89 - y51_89 <= 1
 c419: x51 + x101 - y51_101 <= 1
 c420: x52 + x83 <= 1
 c421: x52 + x98 - y52_98 <= 1
 c422: x52 + x105 <= 1
 c423: x52 + x106 - y52_106 <= 1
 c424: x53 + x56 <= 1
 c425: x53 + x75 - y53_75 <= 1
 c426: x53 + x96 - y53_96 <= 1
 c427: x53 + x104 - y53_104 <= 1
 c428: x54 + x60 - y54_60 <= 1
 c429: x55 + x64 - y55_64 <= 1
 c430: x55 + x68 <= 1
 c431: x55 + x82 - y55_82 <= 1
 c432: x55 + x93 - y55_93 <= 1
 c433: x55 + x97 <= 1
 c434: x56 + x72 - y56_72 <= 1
 c435: x56 + x87 - y56_87 <= 1
 c436: x56 + x90 - y56_90 <= 1
 c437: x56 + x101 - y56_101 <= 1
 c438: x57 + x106 - y57_106 <= 1
 c439: x58 + x70 - y58_70 <= 1
 c440: x58 + x80 - y58_80 <= 1
 c441: x58 + x88 <= 1
 c442: x58 + x105 - y58_105 <= 1
 c443: x58 + x107 - y58_107 <= 1
 c444: x59 + x69 - y59_69 <= 1
 c445: x59 + x74 - y59_74 <= 1
 c446: x59 + x89 <= 1
 c447: x59 + x95 <= 1
 c448: x59 + x97 - y59_97 <= 1
 c449: x59 + x105 - y59_105 <= 1
 c450: x60 + x71 - y60_71 <= 1
 c451: x60 + x79 - y60_79 <= 1
 c452: x60 + x82 - y60_82 <= 1
 c453: x60 + x102 <= 1
 c454: x61 + x63 <= 1
 c455: x61 + x64 - y61_64 <= 1
 c456: x61 + x68 - y61_68 <= 1
 c457: x61 + x84 - y61_84 <= 1
 c458: x61 + x92 <= 1
 c459: x62 + x74 <= 1
 c460: x62 + x93 - y62_93 <= 1
 c461: x62 + x97 - y62_97 <= 1
 c462: x62 + x104 <= 1
 c463: x63 + x65 - y63_65 <= 1
 c464: x63 + x70 <= 1
 c465: x63 + x78 - y63_78 <= 1
 c466: x63 + x86 - y63_86 <= 1
 c467: x63 + x98 - y63_98 <= 1
 c468: x63 + x103 - y63_103 <= 1
 c469: x64 + x71 <= 1
 c470: x64 + x75 - y64_75 <= 1
 c471: x64 + x80 <= 1
 c472: x64 + x82 - y64_82 <= 1
 c473: x64 + x86 - y64_86 <= 1
 c474: x65 + x67 - y65_67 <= 1
 c475: x65 + x88 <= 1
 c476: x65 + x89 - y65_89 <= 1
 c477: x65 + x91 - y65_91 <= 1
 c478: x65 + x92 - y65_92 <= 1
 c479: x65 + x107 - y65_107 <= 1
 c480: x66 + x86 - y66_86 <= 1
 c481: x66 + x99 <= 1
 c482: x67 + x85 - y67_85 <= 1
 c483: x67 + x89 - y67_89 <= 1
 c484: x67 + x98 - y67_98 <= 1
 c485: x67 + x102 - y67_102 <= 1
 c486: x68 + x94 - y68_94 <= 1
 c487: x68 + x106 <= 1
 c488: x68 + x108 - y68_108 <= 1
 c489: x69 + x79 <= 1
 c490: x69 + x80 - y69_80 <= 1
 c491: x69 + x87 - y69_87 <= 1
 c492: x69 + x91 - y69_91 <= 1
 c493: x70 + x81 - y70_81 <= 1
 c494: x70 + x83 - y70_83 <= 1
 c495: x70 + x93 - y70_93 <= 1
 c496: x70 + x94 - y70_94 <= 1
 c497: x70 + x106 - y70_106 <= 1
 c498: x71 + x73 - y71_73 <= 1
 c499: x71 + x80 - y71_80 <= 1
 c500: x71 + x92 - y71_92 <= 1
 c501: x71 + x100 <= 1
 c502: x71 + x104 <= 1
 c503: x72 + x76 - y72_76 <= 1
 c504: x72 + x87 <= 1
 c505: x72 + x89 - y72_89 <= 1
 c506: x72 + x97 - y72_97 <= 1
 c507: x72 + x101 <= 1
 c508: x72 + x102 - y72_102 <= 1
 c509: x73 + x76 - y73_76 <= 1
 c510: x73 + x85 - y73_85 <= 1
 c511: x73 + x106 - y73_106 <= 1
 c512: x74 + x77 - y74_77 <= 1
 c513: x74 + x81 <= 1
 c514: x74 + x88 - y74_88 <= 1
 c515: x74 + x94 <= 1
 c516: x74 + x104 - y74_104 <= 1
 c517: x74 + x107 - y74_107 <= 1
 c518: x75 + x81 <= 1
 c519: x75 + x82 <= 1
 c520: x75 + x85 - y75_85 <= 1
 c521: x75 + x91 - y75_91 <= 1
 c522: x75 + x97 - y75_97 <= 1
 c523: x76 + x78 - y76_78 <= 1
 c524: x76 + x103 - y76_103 <= 1
 c525: x76 + x108 <= 1
 c526: x77 + x83 <= 1
 c527: x78 + x85 - y78_85 <= 1
 c528: x79 + x82 <= 1
 c529: x79 + x84 - y79_84 <= 1
 c530: x79 + x94 - y79_94 <= 1
 c531: x79 + x100 - y79_100 <= 1
 c532: x80 + x88 - y80_88 <= 1
 c533: x80 + x91 - y80_91 <= 1
 c534: x80 + x105 - y80_105 <= 1
 c535: x81 + x89 - y81_89 <= 1
 c536: x82 + x89 <= 1
 c537: x82 + x103 - y82_103 <= 1
 c538: x84 + x92 - y84_92 <= 1
 c539: x85 + x95 - y85_95 <= 1
 c540: x85 + x108 <= 1
 c541: x88 + x98 - y88_98 <= 1
 c542: x88 + x108 <= 1
 c543: x90 + x100 <= 1
 c544: x90 + x101 - y90_101 <= 1
 c545: x90 + x104 - y90_104 <= 1
 c546: x91 + x101 - y91_101 <= 1
 c547: x92 + x93 <= 1
 c548: x92 + x105 - y92_105 <= 1
 c549: x93 + x106 - y93_106 <= 1
 c550: x94 + x95 - y94_95 <= 1
 c551: x95 + x96 - y95_96 <= 1
 c552: x95 + x101 - y95_101 <= 1
 c553: x95 + x106 - y95_106 <= 1
 c554: x96 + x97 <= 1
 c555: x96 + x99 <= 1
 c556: x100 + x108 - y100_108 <= 1
 c557: x101 + x102 - y101_102 <= 1
 c558: x103 + x108 - y103_108 <= 1
Bounds
 0 <= x0 <= 1
 0 <= x1 <= 1
 0 <= x2 <= 1
 0 <= x3 <= 1
 0 <= x4 <= 1
 0 <= x5 <= 1
 0 <= x6 <= 1
 0 <= x7 <= 1
 0 <= x8 <= 1
 0 <= x9 <= 1
 0 <= x10 <= 1
 0 <= x11 <= 1
 0 <= x12 <= 1
 0 <= x13 <= 1
 0 <= x14 <= 1
 0 <= x15 <= 1
 0 <= x16 <= 1
 0 <= x17 <= 1
 0 <= x18 <= 1
 0 <= x19 <= 1
 0 <= x20 <= 1
 0 <= x21 <= 1
 0 <= x22 <= 1
 0 <= x23 <= 1
 0 <= x24 <= 1
 0 <= x25 <= 1
 0 <= x26 <= 1
 0 <= x27 <= 1
 0 <= x28 <= 1
 0 <= x29 <= 1
 0 <= x30 <= 1
 0 <= x31 <= 1
 0 <= x32 <= 1
 0 <= x33 <= 1
 0 <= x34 <= 1
 0 <= x35 <= 1
 0 <= x36 <= 1
 0 <= x37 <= 1
 0 <= x38 <= 1
 0 <= x39 <= 1
 0 <= x40 <= 1
 0 <= x41 <= 1
 0 <= x42 <= 1
 0 <= x43 <= 1
 0 <= x44 <= 1
 0 <= x45 <= 1
 0 <= x46 <= 1
 0 <= x47 <= 1
 0 <= x48 <= 1
 0 <= x49 <= 1
 0 <= x50 <= 1
 0 <= x51 <= 1
 0 <= x52 <= 1
 0 <= x53 <= 1
 0 <= x54 <= 1
 0 <= x55 <= 1
 0 <= x56 <= 1
 0 <= x57 <= 1
 0 <= x58 <= 1
 0 <= x59 <= 1
 0 <= x60 <= 1
 0 <= x61 <= 1
 0 <= x62 <= 1
 0 <= x63 <= 1
 0 <= x64 <= 1
 0 <= x65 <= 1
 0 <= x66 <= 1
 0 <= x67 <= 1
 0 <= x68 <= 1
 0 <= x69 <= 1
 0 <= x70 <= 1
 0 <= x71 <= 1
 0 <= x72 <= 1
 0 <= x73 <= 1
 0 <= x74 <= 1
 0 <= x75 <= 1
 0 <= x76 <= 1
 0 <= x77 <= 1
 0 <= x78 <= 1
 0 <= x79 <= 1
 0 <= x80 <= 1
 0 <= x81 <= 1
 0 <= x82 <= 1
 0 <= x83 <= 1
 0 <= x84 <= 1
 0 <= x85 <= 1
 0 <= x86 <= 1
 0 <= x87 <= 1
 0 <= x88 <= 1
 0 <= x89 <= 1
 0 <= x90 <= 1
 0 <= x91 <= 1
 0 <= x92 <= 1
 0 <= x93 <= 1
 0 <= x94 <= 1
 0 <= x95 <= 1
 0 <= x96 <= 1
 0 <= x97 <= 1
 0 <= x98 <= 1
 0 <= x99 <= 1
 0 <= x100 <= 1
 0 <= x101 <= 1
 0 <= x102 <= 1
 0 <= x103 <= 1
 0 <= x104 <= 1
 0 <= x105 <= 1
 0 <= x106 <= 1
 0 <= x107 <= 1
 0 <= x108 <= 1
 0 <= y14_74 <= 1
 0 <= y95_101 <= 1
 0 <= y28_41 <= 1
 0 <= y30_51 <= 1
 0 <= y42_62 <= 1
 0 <= y52_98 <= 1
 0 <= y56_101 <= 1
 0 <= y26_98 <= 1
 0 <= y0_17 <= 1
 0 <= y44_56 <= 1
 0 <= y88_98 <= 1
 0 <= y30_100 <= 1
 0 <= y62_97 <= 1
 0 <= y59_97 <= 1
 0 <= y1_54 <= 1
 0 <= y70_94 <= 1
 0 <= y10_85 <= 1
 0 <= y60_79 <= 1
 0 <= y75_97 <= 1
 0 <= y0_67 <= 1
 0 <= y35_46 <= 1
 0 <= y30_58 <= 1
 0 <= y49_71 <= 1
 0 <= y28_77 <= 1
 0 <= y45_54 <= 1
 0 <= y67_89 <= 1
 0 <= y44_77 <= 1
 0 <= y91_101 <= 1
 0 <= y70_81 <= 1
 0 <= y39_82 <= 1
 0 <= y12_41 <= 1
 0 <= y36_62 <= 1
 0 <= y64_86 <= 1
 0 <= y13_44 <= 1
 0 <= y76_78 <= 1
 0 <= y49_52 <= 1
 0 <= y58_105 <= 1
 0 <= y7_80 <= 1
 0 <= y47_73 <= 1
 0 <= y37_99 <= 1
 0 <= y27_53 <= 1
 0 <= y47_62 <= 1
 0 <= y37_77 <= 1
 0 <= y34_65 <= 1
 0 <= y19_27 <= 1
 0 <= y2_33 <= 1
 0 <= y63_65 <= 1
 0 <= y6_87 <= 1
 0 <= y33_98 <= 1
 0 <= y21_86 <= 1
 0 <= y7_103 <= 1
 0 <= y5_29 <= 1
 0 <= y74_104 <= 1
 0 <= y15_84 <= 1
 0 <= y63_78 <= 1
 0 <= y5_39 <= 1
 0 <= y11_92 <= 1
 0 <= y29_42 <= 1
 0 <= y30_49 <= 1
 0 <= y10_59 <= 1
 0 <= y49_76 <= 1
 0 <= y0_100 <= 1
 0 <= y28_90 <= 1
 0 <= y55_82 <= 1
 0 <= y44_58 <= 1
 0 <= y53_104 <= 1
 0 <= y13_18 <= 1
 0 <= y44_80 <= 1
 0 <= y68_94 <= 1
 0 <= y8_89 <= 1
 0 <= y39_99 <= 1
 0 <= y9_67 <= 1
 0 <= y34_77 <= 1
 0 <= y8_40 <= 1
 0 <= y3_48 <= 1
 0 <= y16_24 <= 1
 0 <= y4_75 <= 1
 0 <= y8_14 <= 1
 0 <= y17_37 <= 1
 0 <= y50_77 <= 1
 0 <= y28_81 <= 1
 0 <= y18_34 <= 1
 0 <= y22_100 <= 1
 0 <= y19_98 <= 1
 0 <= y26_107 <= 1
 0 <= y24_61 <= 1
 0 <= y46_80 <= 1
 0 <= y12_96 <= 1
 0 <= y47_51 <= 1
 0 <= y72_102 <= 1
 0 <= y48_70 <= 1
 0 <= y11_74 <= 1
 0 <= y12_84 <= 1
 0 <= y72_76 <= 1
 0 <= y4_88 <= 1
 0 <= y8_27 <= 1
 0 <= y42_72 <= 1
 0 <= y26_28 <= 1
 0 <= y0_7 <= 1
 0 <= y46_91 <= 1
 0 <= y90_104 <= 1
 0 <= y12_31 <= 1
 0 <= y67_102 <= 1
 0 <= y5_8 <= 1
 0 <= y0_83 <= 1
 0 <= y62_93 <= 1
 0 <= y9_87 <= 1
 0 <= y32_41 <= 1
 0 <= y48_83 <= 1
 0 <= y72_89 <= 1
 0 <= y5_77 <= 1
 0 <= y40_95 <= 1
 0 <= y15_29 <= 1
 0 <= y22_104 <= 1
 0 <= y20_72 <= 1
 0 <= y12_22 <= 1
 0 <= y57_106 <= 1
 0 <= y8_78 <= 1
 0 <= y56_72 <= 1
 0 <= y44_91 <= 1
 0 <= y73_106 <= 1
 0 <= y80_91 <= 1
 0 <= y84_92 <= 1
 0 <= y63_98 <= 1
 0 <= y5_27 <= 1
 0 <= y23_56 <= 1
 0 <= y73_76 <= 1
 0 <= y34_48 <= 1
 0 <= y13_66 <= 1
 0 <= y48_74 <= 1
 0 <= y4_78 <= 1
 0 <= y49_66 <= 1
 0 <= y63_86 <= 1
 0 <= y4_84 <= 1
 0 <= y42_68 <= 1
 0 <= y46_101 <= 1
 0 <= y40_108 <= 1
 0 <= y49_62 <= 1
 0 <= y30_104 <= 1
 0 <= y36_97 <= 1
 0 <= y45_74 <= 1
 0 <= y34_81 <= 1
 0 <= y3_44 <= 1
 0 <= y72_97 <= 1
 0 <= y93_106 <= 1
 0 <= y48_65 <= 1
 0 <= y38_77 <= 1
 0 <= y51_87 <= 1
 0 <= y6_71 <= 1
 0 <= y38_39 <= 1
 0 <= y4_83 <= 1
 0 <= y8_22 <= 1
 0 <= y17_61 <= 1
 0 <= y30_73 <= 1
 0 <= y28_73 <= 1
 0 <= y49_93 <= 1
 0 <= y65_91 <= 1
 0 <= y18_58 <= 1
 0 <= y20_68 <= 1
 0 <= y33_84 <= 1
 0 <= y25_62 <= 1
 0 <= y92_105 <= 1
 0 <= y14_88 <= 1
 0 <= y4_22 <= 1
 0 <= y3_59 <= 1
 0 <= y17_28 <= 1
 0 <= y7_33 <= 1
 0 <= y79_94 <= 1
 0 <= y25_108 <= 1
 0 <= y6_62 <= 1
 0 <= y40_52 <= 1
 0 <= y4_90 <= 1
 0 <= y7_63 <= 1
 0 <= y41_49 <= 1
 0 <= y65_92 <= 1
 0 <= y38_48 <= 1
 0 <= y4_96 <= 1
 0 <= y1_4 <= 1
 0 <= y59_105 <= 1
 0 <= y0_85 <= 1
 0 <= y63_103 <= 1
 0 <= y25_83 <= 1
 0 <= y5_58 <= 1
 0 <= y51_75 <= 1
 0 <= y13_33 <= 1
 0 <= y40_65 <= 1
 0 <= y7_69 <= 1
 0 <= y7_99 <= 1
 0 <= y46_74 <= 1
 0 <= y20_57 <= 1
 0 <= y43_99 <= 1
 0 <= y32_76 <= 1
 0 <= y54_60 <= 1
 0 <= y15_80 <= 1
 0 <= y7_23 <= 1
 0 <= y1_90 <= 1
 0 <= y101_102 <= 1
 0 <= y74_88 <= 1
 0 <= y8_17 <= 1
 0 <= y13_52 <= 1
 0 <= y28_76 <= 1
 0 <= y48_49 <= 1
 0 <= y24_58 <= 1
 0 <= y46_77 <= 1
 0 <= y25_59 <= 1
 0 <= y36_99 <= 1
 0 <= y2_15 <= 1
 0 <= y9_71 <= 1
 0 <= y1_34 <= 1
 0 <= y70_106 <= 1
 0 <= y51_89 <= 1
 0 <= y65_89 <= 1
 0 <= y37_48 <= 1
 0 <= y55_93 <= 1
 0 <= y51_101 <= 1
 0 <= y64_75 <= 1
 0 <= y22_82 <= 1
 0 <= y11_27 <= 1
 0 <= y32_100 <= 1
 0 <= y2_6 <= 1
 0 <= y26_59 <= 1
 0 <= y0_58 <= 1
 0 <= y20_53 <= 1
 0 <= y4_16 <= 1
 0 <= y100_108 <= 1
 0 <= y6_26 <= 1
 0 <= y39_72 <= 1
 0 <= y2_90 <= 1
 0 <= y5_63 <= 1
 0 <= y12_39 <= 1
 0 <= y43_57 <= 1
 0 <= y19_85 <= 1
 0 <= y0_27 <= 1
 0 <= y53_96 <= 1
 0 <= y10_103 <= 1
 0 <= y0_49 <= 1
 0 <= y32_81 <= 1
 0 <= y71_80 <= 1
 0 <= y25_47 <= 1
 0 <= y80_88 <= 1
 0 <= y20_26 <= 1
 0 <= y33_54 <= 1
 0 <= y74_107 <= 1
 0 <= y8_32 <= 1
 0 <= y49_107 <= 1
 0 <= y10_58 <= 1
 0 <= y13_95 <= 1
 0 <= y17_71 <= 1
 0 <= y39_44 <= 1
 0 <= y41_73 <= 1
 0 <= y43_79 <= 1
 0 <= y42_99 <= 1
 0 <= y71_73 <= 1
 0 <= y60_82 <= 1
 0 <= y13_100 <= 1
 0 <= y9_92 <= 1
 0 <= y0_68 <= 1
 0 <= y22_43 <= 1
 0 <= y5_33 <= 1
 0 <= y61_68 <= 1
 0 <= y16_39 <= 1
 0 <= y4_74 <= 1
 0 <= y79_84 <= 1
 0 <= y52_106 <= 1
 0 <= y30_108 <= 1
 0 <= y5_102 <= 1
 0 <= y9_99 <= 1
 0 <= y2_13 <= 1
 0 <= y44_100 <= 1
 0 <= y85_95 <= 1
 0 <= y71_92 <= 1
 0 <= y60_71 <= 1
 0 <= y95_106 <= 1
 0 <= y9_47 <= 1
 0 <= y16_52 <= 1
 0 <= y40_49 <= 1
 0 <= y75_85 <= 1
 0 <= y27_97 <= 1
 0 <= y40_87 <= 1
 0 <= y56_90 <= 1
 0 <= y35_104 <= 1
 0 <= y14_58 <= 1
 0 <= y69_91 <= 1
 0 <= y8_70 <= 1
 0 <= y15_51 <= 1
 0 <= y58_80 <= 1
 0 <= y65_107 <= 1
 0 <= y7_105 <= 1
 0 <= y32_92 <= 1
 0 <= y3_25 <= 1
 0 <= y38_102 <= 1
 0 <= y59_74 <= 1
 0 <= y33_51 <= 1
 0 <= y81_89 <= 1
 0 <= y4_56 <= 1
 0 <= y48_82 <= 1
 0 <= y27_102 <= 1
 0 <= y17_76 <= 1
 0 <= y31_84 <= 1
 0 <= y5_104 <= 1
 0 <= y21_85 <= 1
 0 <= y41_104 <= 1
 0 <= y3_30 <= 1
 0 <= y76_103 <= 1
 0 <= y39_89 <= 1
 0 <= y7_48 <= 1
 0 <= y78_85 <= 1
 0 <= y24_107 <= 1
 0 <= y12_54 <= 1
 0 <= y3_91 <= 1
 0 <= y43_48 <= 1
 0 <= y39_46 <= 1
 0 <= y13_55 <= 1
 0 <= y65_67 <= 1
 0 <= y67_85 <= 1
 0 <= y94_95 <= 1
 0 <= y18_85 <= 1
 0 <= y69_87 <= 1
 0 <= y15_47 <= 1
 0 <= y70_93 <= 1
 0 <= y8_41 <= 1
 0 <= y12_94 <= 1
 0 <= y30_57 <= 1
 0 <= y50_74 <= 1
 0 <= y9_14 <= 1
 0 <= y25_100 <= 1
 0 <= y103_108 <= 1
 0 <= y10_13 <= 1
 0 <= y49_94 <= 1
 0 <= y64_82 <= 1
 0 <= y27_106 <= 1
 0 <= y55_64 <= 1
 0 <= y17_80 <= 1
 0 <= y39_61 <= 1
 0 <= y50_55 <= 1
 0 <= y12_97 <= 1
 0 <= y69_80 <= 1
 0 <= y25_63 <= 1
 0 <= y4_15 <= 1
 0 <= y9_75 <= 1
 0 <= y68_108 <= 1
 0 <= y28_58 <= 1
 0 <= y34_69 <= 1
 0 <= y34_63 <= 1
 0 <= y14_103 <= 1
 0 <= y49_87 <= 1
 0 <= y5_67 <= 1
 0 <= y40_89 <= 1
 0 <= y16_69 <= 1
 0 <= y41_67 <= 1
 0 <= y32_94 <= 1
 0 <= y24_43 <= 1
 0 <= y27_54 <= 1
 0 <= y4_28 <= 1
 0 <= y14_68 <= 1
 0 <= y61_84 <= 1
 0 <= y9_86 <= 1
 0 <= y82_103 <= 1
 0 <= y4_58 <= 1
 0 <= y15_72 <= 1
 0 <= y18_21 <= 1
 0 <= y33_43 <= 1
 0 <= y12_35 <= 1
 0 <= y10_63 <= 1
 0 <= y1_100 <= 1
 0 <= y8_105 <= 1
 0 <= y30_92 <= 1
 0 <= y31_86 <= 1
 0 <= y29_98 <= 1
 0 <= y19_63 <= 1
 0 <= y24_50 <= 1
 0 <= y43_96 <= 1
 0 <= y59_69 <= 1
 0 <= y95_96 <= 1
 0 <= y6_43 <= 1
 0 <= y73_85 <= 1
 0 <= y41_60 <= 1
 0 <= y75_91 <= 1
 0 <= y53_75 <= 1
 0 <= y47_88 <= 1
 0 <= y16_73 <= 1
 0 <= y31_101 <= 1
 0 <= y44_83 <= 1
 0 <= y14_44 <= 1
 0 <= y46_76 <= 1
 0 <= y90_101 <= 1
 0 <= y36_98 <= 1
 0 <= y13_96 <= 1
 0 <= y70_83 <= 1
 0 <= y25_94 <= 1
 0 <= y28_61 <= 1
 0 <= y80_105 <= 1
 0 <= y61_64 <= 1
 0 <= y12_88 <= 1
 0 <= y30_63 <= 1
 0 <= y9_12 <= 1
 0 <= y4_92 <= 1
 0 <= y10_11 <= 1
 0 <= y66_86 <= 1
 0 <= y17_86 <= 1
 0 <= y58_107 <= 1
 0 <= y56_87 <= 1
 0 <= y79_100 <= 1
 0 <= y1_2 <= 1
 0 <= y67_98 <= 1
 0 <= y44_96 <= 1
 0 <= y11_105 <= 1
 0 <= y3_20 <= 1
 0 <= y20_52 <= 1
 0 <= y5_22 <= 1
 0 <= y29_57 <= 1
 0 <= y6_37 <= 1
 0 <= y17_19 <= 1
 0 <= y11_37 <= 1
 0 <= y74_77 <= 1
 0 <= y9_31 <= 1
 0 <= y3_81 <= 1
 0 <= y14_62 <= 1
 0 <= y33_70 <= 1
 0 <= y58_70 <= 1
 0 <= y39_104 <= 1
Binaries
 x0  x1  x2  x3  x4  x5  x6  x7  x8  x9  x10  x11  x12  x13  x14  x15  x16 
 x17  x18  x19  x20  x21  x22  x23  x24  x25  x26  x27  x28  x29  x30  x31 
 x32  x33  x34  x35  x36  x37  x38  x39  x40  x41  x42  x43  x44  x45  x46 
 x47  x48  x49  x50  x51  x52  x53  x54  x55  x56  x57  x58  x59  x60  x61 
 x62  x63  x64  x65  x66  x67  x68  x69  x70  x71  x72  x73  x74  x75  x76 
 x77  x78  x79  x80  x81  x82  x83  x84  x85  x86  x87  x88  x89  x90  x91 
 x92  x93  x94  x95  x96  x97  x98  x99  x100  x101  x102  x103  x104  x105 
 x106  x107  x108  y14_74  y95_101  y28_41  y30_51  y42_62  y52_98  y56_101 
 y26_98  y0_17  y44_56  y88_98  y30_100  y62_97  y59_97  y1_54  y70_94  y10_85 
 y60_79  y75_97  y0_67  y35_46  y30_58  y49_71  y28_77  y45_54  y67_89  y44_77 
 y91_101  y70_81  y39_82  y12_41  y36_62  y64_86  y13_44  y76_78  y49_52 
 y58_105  y7_80  y47_73  y37_99  y27_53  y47_62  y37_77  y34_65  y19_27  y2_33 
 y63_65  y6_87  y33_98  y21_86  y7_103  y5_29  y74_104  y15_84  y63_78  y5_39 
 y11_92  y29_42  y30_49  y10_59  y49_76  y0_100  y28_90  y55_82  y44_58 
 y53_104  y13_18  y44_80  y68_94  y8_89  y39_99  y9_67  y34_77  y8_40  y3_48 
 y16_24  y4_75  y8_14  y17_37  y50_77  y28_81  y18_34  y22_100  y19_98 
 y26_107  y24_61  y46_80  y12_96  y47_51  y72_102  y48_70  y11_74  y12_84 
 y72_76  y4_88  y8_27  y42_72  y26_28  y0_7  y46_91  y90_104  y12_31  y67_102 
 y5_8  y0_83  y62_93  y9_87  y32_41  y48_83  y72_89  y5_77  y40_95  y15_29 
 y22_104  y20_72  y12_22  y57_106  y8_78  y56_72  y44_91  y73_106  y80_91 
 y84_92  y63_98  y5_27  y23_56  y73_76  y34_48  y13_66  y48_74  y4_78  y49_66 
 y63_86  y4_84  y42_68  y46_101  y40_108  y49_62  y30_104  y36_97  y45_74 
 y34_81  y3_44  y72_97  y93_106  y48_65  y38_77  y51_87  y6_71  y38_39  y4_83 
 y8_22  y17_61  y30_73  y28_73  y49_93  y65_91  y18_58  y20_68  y33_84  y25_62 
 y92_105  y14_88  y4_22  y3_59  y17_28  y7_33  y79_94  y25_108  y6_62  y40_52 
 y4_90  y7_63  y41_49  y65_92  y38_48  y4_96  y1_4  y59_105  y0_85  y63_103 
 y25_83  y5_58  y51_75  y13_33  y40_65  y7_69  y7_99  y46_74  y20_57  y43_99 
 y32_76  y54_60  y15_80  y7_23  y1_90  y101_102  y74_88  y8_17  y13_52  y28_76 
 y48_49  y24_58  y46_77  y25_59  y36_99  y2_15  y9_71  y1_34  y70_106  y51_89 
 y65_89  y37_48  y55_93  y51_101  y64_75  y22_82  y11_27  y32_100  y2_6 
 y26_59  y0_58  y20_53  y4_16  y100_108  y6_26  y39_72  y2_90  y5_63  y12_39 
 y43_57  y19_85  y0_27  y53_96  y10_103  y0_49  y32_81  y71_80  y25_47  y80_88 
 y20_26  y33_54  y74_107  y8_32  y49_107  y10_58  y13_95  y17_71  y39_44 
 y41_73  y43_79  y42_99  y71_73  y60_82  y13_100  y9_92  y0_68  y22_43  y5_33 
 y61_68  y16_39  y4_74  y79_84  y52_106  y30_108  y5_102  y9_99  y2_13 
 y44_100  y85_95  y71_92  y60_71  y95_106  y9_47  y16_52  y40_49  y75_85 
 y27_97  y40_87  y56_90  y35_104  y14_58  y69_91  y8_70  y15_51  y58_80 
 y65_107  y7_105  y32_92  y3_25  y38_102  y59_74  y33_51  y81_89  y4_56 
 y48_82  y27_102  y17_76  y31_84  y5_104  y21_85  y41_104  y3_30  y76_103 
 y39_89  y7_48  y78_85  y24_107  y12_54  y3_91  y43_48  y39_46  y13_55  y65_67 
 y67_85  y94_95  y18_85  y69_87  y15_47  y70_93  y8_41  y12_94  y30_57  y50_74 
 y9_14  y25_100  y103_108  y10_13  y49_94  y64_82  y27_106  y55_64  y17_80 
 y39_61  y50_55  y12_97  y69_80  y25_63  y4_15  y9_75  y68_108  y28_58  y34_69 
 y34_63  y14_103  y49_87  y5_67  y40_89  y16_69  y41_67  y32_94  y24_43 
 y27_54  y4_28  y14_68  y61_84  y9_86  y82_103  y4_58  y15_72  y18_21  y33_43 
 y12_35  y10_63  y1_100  y8_105  y30_92  y31_86  y29_98  y19_63  y24_50 
 y43_96  y59_69  y95_96  y6_43  y73_85  y41_60  y75_91  y53_75  y47_88  y16_73 
 y31_101  y44_83  y14_44  y46_76  y90_101  y36_98  y13_96  y70_83  y25_94 
 y28_61  y80_105  y61_64  y12_88  y30_63  y9_12  y4_92  y10_11  y66_86  y17_86 
 y58_107  y56_87  y79_100  y1_2  y67_98  y44_96  y11_105  y3_20  y20_52  y5_22 
 y29_57  y6_37  y17_19  y11_37  y74_77  y9_31  y3_81  y14_62  y33_70  y58_70 
 y39_104 
End
